p cnf 91 322
-1 -2 0
-1 -3 0
-1 -4 0
-1 -5 0
-1 -6 0
-1 -7 0
-2 -3 0
-2 -4 0
-2 -5 0
-2 -6 0
-2 -7 0
-3 -4 0
-3 -5 0
-3 -6 0
-3 -7 0
-4 -5 0
-4 -6 0
-4 -7 0
-5 -6 0
-5 -7 0
-6 -7 0
-8 -9 0
-8 -10 0
-8 -11 0
-8 -12 0
-8 -13 0
-8 -14 0
-9 -10 0
-9 -11 0
-9 -12 0
-9 -13 0
-9 -14 0
-10 -11 0
-10 -12 0
-10 -13 0
-10 -14 0
-11 -12 0
-11 -13 0
-11 -14 0
-12 -13 0
-12 -14 0
-13 -14 0
-15 -16 0
-15 -17 0
-15 -18 0
-15 -19 0
-15 -20 0
-15 -21 0
-16 -17 0
-16 -18 0
-16 -19 0
-16 -20 0
-16 -21 0
-17 -18 0
-17 -19 0
-17 -20 0
-17 -21 0
-18 -19 0
-18 -20 0
-18 -21 0
-19 -20 0
-19 -21 0
-20 -21 0
-22 -23 0
-22 -24 0
-22 -25 0
-22 -26 0
-22 -27 0
-22 -28 0
-23 -24 0
-23 -25 0
-23 -26 0
-23 -27 0
-23 -28 0
-24 -25 0
-24 -26 0
-24 -27 0
-24 -28 0
-25 -26 0
-25 -27 0
-25 -28 0
-26 -27 0
-26 -28 0
-27 -28 0
-29 -30 0
-29 -31 0
-29 -32 0
-29 -33 0
-29 -34 0
-29 -35 0
-30 -31 0
-30 -32 0
-30 -33 0
-30 -34 0
-30 -35 0
-31 -32 0
-31 -33 0
-31 -34 0
-31 -35 0
-32 -33 0
-32 -34 0
-32 -35 0
-33 -34 0
-33 -35 0
-34 -35 0
-36 -37 0
-36 -38 0
-36 -39 0
-36 -40 0
-36 -41 0
-36 -42 0
-37 -38 0
-37 -39 0
-37 -40 0
-37 -41 0
-37 -42 0
-38 -39 0
-38 -40 0
-38 -41 0
-38 -42 0
-39 -40 0
-39 -41 0
-39 -42 0
-40 -41 0
-40 -42 0
-41 -42 0
-43 -44 0
-43 -45 0
-43 -46 0
-43 -47 0
-43 -48 0
-43 -49 0
-44 -45 0
-44 -46 0
-44 -47 0
-44 -48 0
-44 -49 0
-45 -46 0
-45 -47 0
-45 -48 0
-45 -49 0
-46 -47 0
-46 -48 0
-46 -49 0
-47 -48 0
-47 -49 0
-48 -49 0
-50 -51 0
-50 -52 0
-50 -53 0
-50 -54 0
-50 -55 0
-50 -56 0
-51 -52 0
-51 -53 0
-51 -54 0
-51 -55 0
-51 -56 0
-52 -53 0
-52 -54 0
-52 -55 0
-52 -56 0
-53 -54 0
-53 -55 0
-53 -56 0
-54 -55 0
-54 -56 0
-55 -56 0
-57 -58 0
-57 -59 0
-57 -60 0
-57 -61 0
-57 -62 0
-57 -63 0
-58 -59 0
-58 -60 0
-58 -61 0
-58 -62 0
-58 -63 0
-59 -60 0
-59 -61 0
-59 -62 0
-59 -63 0
-60 -61 0
-60 -62 0
-60 -63 0
-61 -62 0
-61 -63 0
-62 -63 0
-64 -65 0
-64 -66 0
-64 -67 0
-64 -68 0
-64 -69 0
-64 -70 0
-65 -66 0
-65 -67 0
-65 -68 0
-65 -69 0
-65 -70 0
-66 -67 0
-66 -68 0
-66 -69 0
-66 -70 0
-67 -68 0
-67 -69 0
-67 -70 0
-68 -69 0
-68 -70 0
-69 -70 0
-71 -72 0
-71 -73 0
-71 -74 0
-71 -75 0
-71 -76 0
-71 -77 0
-72 -73 0
-72 -74 0
-72 -75 0
-72 -76 0
-72 -77 0
-73 -74 0
-73 -75 0
-73 -76 0
-73 -77 0
-74 -75 0
-74 -76 0
-74 -77 0
-75 -76 0
-75 -77 0
-76 -77 0
-78 -79 0
-78 -80 0
-78 -81 0
-78 -82 0
-78 -83 0
-78 -84 0
-79 -80 0
-79 -81 0
-79 -82 0
-79 -83 0
-79 -84 0
-80 -81 0
-80 -82 0
-80 -83 0
-80 -84 0
-81 -82 0
-81 -83 0
-81 -84 0
-82 -83 0
-82 -84 0
-83 -84 0
-85 -86 0
-85 -87 0
-85 -88 0
-85 -89 0
-85 -90 0
-85 -91 0
-86 -87 0
-86 -88 0
-86 -89 0
-86 -90 0
-86 -91 0
-87 -88 0
-87 -89 0
-87 -90 0
-87 -91 0
-88 -89 0
-88 -90 0
-88 -91 0
-89 -90 0
-89 -91 0
-90 -91 0
1 8 15 22 29 36 43 50 57 64 71 78 85 0
2 9 16 23 30 37 44 51 58 65 72 79 86 0
3 10 17 24 31 38 45 52 59 66 73 80 87 0
4 11 18 25 32 39 46 53 60 67 74 81 88 0
5 12 19 26 33 40 47 54 61 68 75 82 89 0
6 13 20 27 34 41 48 55 62 69 76 83 90 0
7 14 21 28 35 42 49 56 63 70 77 84 91 0
1 14 20 26 32 38 44 50 63 69 75 81 87 0
2 8 21 27 33 39 45 51 57 70 76 82 88 0
3 9 15 28 34 40 46 52 58 64 77 83 89 0
4 10 16 22 35 41 47 53 59 65 71 84 90 0
5 11 17 23 29 42 48 54 60 66 72 78 91 0
6 12 18 24 30 36 49 55 61 67 73 79 85 0
7 13 19 25 31 37 43 56 62 68 74 80 86 0
1 13 18 23 35 40 45 50 62 67 72 84 89 0
2 14 19 24 29 41 46 51 63 68 73 78 90 0
3 8 20 25 30 42 47 52 57 69 74 79 91 0
4 9 21 26 31 36 48 53 58 70 75 80 85 0
5 10 15 27 32 37 49 54 59 64 76 81 86 0
6 11 16 28 33 38 43 55 60 65 77 82 87 0
7 12 17 22 34 39 44 56 61 66 71 83 88 0
1 12 16 27 31 42 46 50 61 65 76 80 91 0
2 13 17 28 32 36 47 51 62 66 77 81 85 0
3 14 18 22 33 37 48 52 63 67 71 82 86 0
4 8 19 23 34 38 49 53 57 68 72 83 87 0
5 9 20 24 35 39 43 54 58 69 73 84 88 0
6 10 21 25 29 40 44 55 59 70 74 78 89 0
7 11 15 26 30 41 45 56 60 64 75 79 90 0
1 11 21 24 34 37 47 50 60 70 73 83 86 0
2 12 15 25 35 38 48 51 61 64 74 84 87 0
3 13 16 26 29 39 49 52 62 65 75 78 88 0
4 14 17 27 30 40 43 53 63 66 76 79 89 0
5 8 18 28 31 41 44 54 57 67 77 80 90 0
6 9 19 22 32 42 45 55 58 68 71 81 91 0
7 10 20 23 33 36 46 56 59 69 72 82 85 0
1 10 19 28 30 39 48 50 59 68 77 79 88 0
2 11 20 22 31 40 49 51 60 69 71 80 89 0
3 12 21 23 32 41 43 52 61 70 72 81 90 0
4 13 15 24 33 42 44 53 62 64 73 82 91 0
5 14 16 25 34 36 45 54 63 65 74 83 85 0
6 8 17 26 35 37 46 55 57 66 75 84 86 0
7 9 18 27 29 38 47 56 58 67 76 78 87 0
1 9 17 25 33 41 49 50 58 66 74 82 90 0
2 10 18 26 34 42 43 51 59 67 75 83 91 0
3 11 19 27 35 36 44 52 60 68 76 84 85 0
4 12 20 28 29 37 45 53 61 69 77 78 86 0
5 13 21 22 30 38 46 54 62 70 71 79 87 0
6 14 15 23 31 39 47 55 63 64 72 80 88 0
7 8 16 24 32 40 48 56 57 65 73 81 89 0
